94 169 96 98 91 141 152 118 110 85 95 65 170 101 122 8 36 186 129 27 178 74 37 97 50 102 181 72 59 196 10 171 153 123 100 35 175 47 31 69 54 61 57 133 194 15 113 93 33 81 103 136 195 22 1 62 70 75 174 84 51 67 7 146 41 115 76 173 55 143 164 6 139 168 132 99 32 183 43 40 105 2 192 20 73 156 77 25 191 56 148 160 111 49 190 9 126 180 108 198 127 158 119 12 16 21 5 30 44 151 199 60 142 92 58 117 0 124 179 131 176 71 34 89 87 26 82 177 88 79 46 144 165 13 114 29 145 154 78 112 120 48 159 185 24 68 187 138 172 134 162 130 137 23 189 45 3 157 166 121 86 28 38 42 140 90 163 17 193 184 19 104 83 18 52 106 149 167 125 161 80 182 116 107 4 11 128 66 64 135 53 39 150 63 14 197 155 188 147 109 

